p cnf 150 210
61 108 -112 0
-51 41 88 0
-148 -106 109 0
-83 13 121 0
-81 14 34 0
44 -6 -121 0
-34 52 43 0
47 9 -1 0
-132 -14 -80 0
-54 -24 147 0
49 24 99 0
146 37 -12 0
82 83 -11 0
53 116 -92 0
-143 -63 -17 0
8 107 -150 0
-132 -3 -91 0
-90 -19 -32 0
110 -53 60 0
-33 76 -58 0
-23 -17 118 0
127 46 19 0
150 134 34 0
-116 -90 -41 0
-119 -36 -99 0
55 -18 -16 0
-80 131 -120 0
-1 65 -144 0
69 -102 -150 0
24 10 13 0
64 -32 -30 0
48 -56 -136 0
-118 73 -54 0
110 63 111 0
-138 -105 -124 0
-50 -103 54 0
27 -52 137 0
55 -143 25 0
-111 -123 5 0
32 -148 1 0
4 1 -15 0
-98 116 -95 0
91 17 -124 0
-4 -33 -121 0
-91 -32 88 0
-22 53 -132 0
-28 124 -9 0
46 -53 126 0
-113 -81 -52 0
86 65 -78 0
40 -25 -142 0
-43 115 33 0
81 -69 60 0
-142 -104 -69 0
58 -107 -96 0
-19 26 -18 0
-135 -50 14 0
-129 -149 -127 0
-19 -81 115 0
-39 -60 108 0
97 117 -135 0
-71 141 36 0
-107 -64 120 0
129 -140 36 0
-111 -73 -82 0
50 96 141 0
-106 -25 -99 0
30 -137 -143 0
50 -68 7 0
-110 9 119 0
-103 105 -114 0
54 85 104 0
41 -5 -16 0
-53 -128 -82 0
65 -4 78 0
-148 17 83 0
21 -88 103 0
-84 -67 -85 0
146 -70 125 0
94 -125 -14 0
49 -27 -28 0
-134 -76 -12 0
-119 -146 117 0
125 -108 -26 0
74 -144 62 0
25 -48 -10 0
-104 -5 142 0
-115 43 -40 0
101 72 -99 0
106 34 -61 0
110 50 76 0
147 -121 14 0
-48 -120 11 0
70 123 18 0
61 -8 -88 0
1 -45 17 0
-3 -31 4 0
-26 -84 135 0
16 97 -123 0
-82 -26 -79 0
72 25 -120 0
-18 71 -113 0
-43 -96 -4 0
-108 -1 -67 0
-37 139 131 0
79 -75 90 0
-75 119 -71 0
17 66 -43 0
-10 13 104 0
20 -147 -121 0
41 -59 -8 0
71 103 146 0
-118 34 11 0
50 -68 -1 0
37 -74 72 0
105 69 33 0
41 139 -84 0
-36 4 13 0
81 92 -75 0
-139 -30 -123 0
71 -31 109 0
45 -2 91 0
43 56 -139 0
-80 -57 -135 0
-25 115 -15 0
-2 -95 -16 0
72 -88 89 0
6 -35 -37 0
-54 -55 -128 0
-15 36 -122 0
46 -39 -80 0
-120 149 56 0
-9 -28 -31 0
88 -13 -101 0
127 56 -117 0
77 24 -146 0
-143 -35 127 0
135 11 59 0
41 14 -73 0
62 -97 93 0
-86 -101 93 0
30 -4 26 0
148 141 -68 0
145 -46 -9 0
149 -31 -22 0
-65 130 -105 0
-35 -144 104 0
-89 33 134 0
-133 57 134 0
27 -64 67 0
x -6 7 10 11 14 17 -23 25 26 -29 31 33 -34 -38 39 40 -48 -50 -51 52 55 -56 57 -58 -64 -65 -72 -73 -75 77 78 80 -84 85 -86 -89 91 -95 100 105 106 108 -109 -110 113 -114 -117 -118 -123 124 129 130 131 134 135 136 -137 138 -139 145 -147 149 0
x -2 3 6 -8 9 10 -13 -21 -22 -23 -24 -26 -27 -28 29 30 -32 -33 34 36 38 -39 -40 -41 -42 -43 44 46 -51 -52 53 57 59 -63 65 -66 -69 -72 73 76 -77 -79 -80 81 -82 -83 86 89 -90 93 -94 -95 96 97 99 101 -102 -105 -106 -108 -109 -111 114 -117 -118 -120 -121 -122 124 126 129 -130 -131 -132 134 -135 -136 -138 139 -141 144 145 -147 -148 -149 150 0
x -3 4 -6 -9 -12 14 15 -16 17 18 22 -23 26 28 -29 -35 -37 -38 -42 43 47 -50 -52 53 -54 -58 -62 -63 -64 -67 68 72 74 82 -83 -84 -88 -90 -92 -93 94 97 -98 -101 106 -108 109 111 -112 113 116 -117 121 122 -125 -126 127 129 130 131 -132 -133 -134 138 -143 -144 146 147 -148 -150 0
x -4 7 -9 10 13 19 20 -21 -25 26 28 29 -32 -36 38 39 40 -42 -43 -47 -50 -52 -54 55 57 -59 -61 -62 67 73 74 -75 78 -79 -81 82 -84 86 87 88 -89 -90 -91 -93 -96 97 99 100 101 -103 -104 109 -110 111 -113 114 -115 -116 -117 -120 121 -122 -123 -126 133 -134 135 -136 138 -140 143 -144 145 146 -147 -150 0
x 1 -2 4 5 -8 -10 11 -12 14 15 18 -19 -21 22 -24 25 -26 28 -29 32 -33 34 35 36 39 40 -41 43 -44 -48 -50 -51 52 -57 58 -59 62 63 -64 65 66 67 70 -78 -80 81 84 85 90 -91 -93 94 95 -96 97 -98 -99 102 -103 104 107 109 114 115 -119 -120 121 -122 -125 -126 131 139 -142 -144 -145 146 -149 -150 0
x -4 7 8 -9 10 13 -16 18 19 -21 25 -28 29 30 -32 37 -41 -42 43 -44 47 -52 53 -57 59 61 62 63 64 66 -69 70 -72 76 -79 -80 -84 85 -86 87 -88 90 91 -92 94 95 96 98 -99 100 102 -104 107 -109 110 114 118 120 123 -124 -125 128 -129 -132 134 -137 -139 140 -144 146 148 -150 0
x -2 -6 7 -8 -13 14 15 -17 19 20 -23 -24 -26 -28 29 -33 36 -37 -38 -41 42 43 44 -47 48 -49 50 51 54 55 56 58 60 61 -62 66 68 -69 -70 -74 75 76 77 78 -80 82 -90 92 -93 94 95 102 104 107 -108 -109 116 117 121 -122 -125 128 -129 -131 -134 -135 -136 -137 -138 143 -144 145 146 -147 -150 0
x -3 6 7 -8 9 -13 14 15 -16 18 -20 22 -23 25 -26 -28 29 30 31 -32 33 35 -37 38 -39 40 -42 -45 -46 47 49 50 -51 52 55 -57 58 -63 64 -65 66 67 69 -70 -74 76 77 -78 -79 81 -82 -83 -85 -87 -88 89 -90 -95 97 -98 -100 -102 104 105 107 -109 110 -114 -115 116 -117 -122 126 -127 128 130 133 -135 -137 -142 143 144 146 147 -148 149 0
x 2 3 -6 -8 9 -15 16 17 18 19 20 22 27 -28 31 32 -34 36 38 39 40 41 -43 44 56 57 59 -61 65 -66 -68 -69 70 -72 -73 -74 -76 -77 -78 -85 -88 -89 97 -98 102 104 107 108 109 -111 112 116 -117 118 -119 121 -123 124 126 -127 -129 -132 133 135 -138 139 -140 -141 142 145 -147 0
x 1 3 7 -9 10 -16 20 -21 -22 -25 27 -30 -32 33 34 -35 36 -38 39 -42 -43 -44 -45 -51 -55 56 -60 -62 63 -65 -70 71 -74 -75 -80 -83 -84 -87 88 89 91 -92 -93 -95 -97 -104 106 -108 113 114 -115 -116 117 -119 -121 -124 128 -133 134 -140 -143 -144 145 149 0
x 1 -3 4 -6 7 8 9 12 13 14 -16 -18 -22 -23 24 -26 -27 -28 33 35 36 -37 -38 43 -45 -46 -47 51 54 -55 -56 -58 59 -61 -62 63 68 69 -70 71 75 -77 78 79 -80 81 86 87 90 91 92 -94 96 97 -98 99 -100 -103 106 -109 111 112 113 114 115 -116 119 121 122 -124 -127 128 131 -134 135 -136 137 -138 142 144 -147 0
x -2 -4 5 6 -9 10 14 15 -16 -18 -19 22 26 -28 29 -30 31 34 35 36 -41 -44 53 -55 -56 -57 -58 -59 -61 -63 66 -67 68 -71 -72 -73 74 -77 80 81 -82 -83 84 85 86 87 -89 91 -92 -93 95 -102 109 -110 112 -114 118 -121 -122 123 -124 126 130 -131 132 134 135 136 137 -138 139 140 141 142 -146 -147 148 150 0
x -4 8 10 -11 12 -13 -16 -17 18 19 -20 -21 24 -25 -26 27 -31 -33 35 -36 -37 -39 -40 -41 42 44 45 -48 -49 -52 53 54 -57 64 -68 69 -71 73 -74 -76 -77 78 -79 80 81 -82 -84 85 -86 87 88 89 93 96 98 -99 102 103 -106 107 108 109 110 -111 -113 119 -121 123 124 126 -127 -129 130 -132 137 -140 141 -143 147 -150 0
x -3 4 7 -10 11 -12 17 18 20 21 23 26 27 33 34 35 -36 -37 -38 41 -44 48 54 -57 60 -61 -63 64 65 -68 -69 -70 72 73 74 -75 77 -78 -80 -84 85 88 -89 -91 92 93 94 -95 -96 100 -101 107 108 -112 -116 118 120 123 125 128 -132 135 -137 -138 -140 142 147 149 150 0
x -1 4 -5 6 -12 14 15 20 -22 -23 -24 25 -28 29 31 -35 -36 -37 -38 46 47 48 52 -59 -61 62 -63 66 -68 69 -70 73 74 -78 81 -85 87 90 -95 -96 -97 98 99 -100 103 -106 -109 -116 -124 126 131 -132 -135 138 -139 -140 142 144 145 -148 0
x 1 2 -7 9 -13 -14 -15 17 -19 21 -22 24 -25 27 -32 -33 34 35 -37 39 -47 -49 51 55 -56 63 67 68 -69 75 -76 -77 78 -80 81 -83 -94 -97 103 107 109 111 -112 -115 -116 -119 123 -125 126 130 -131 -133 136 137 -141 143 -147 -150 0
x -2 5 9 -13 -15 -16 -17 -18 20 22 -23 24 -26 28 -30 -31 -33 -34 37 38 40 -42 -43 45 -48 49 50 53 -54 55 60 -61 -63 -66 -68 72 -74 76 78 -83 84 -85 -86 -88 -89 -90 91 97 98 -101 -102 -103 105 109 -110 114 115 -119 123 125 -128 -130 -135 -136 -137 139 143 -144 145 149 0
x 2 5 -7 -8 -11 12 -14 15 -17 20 -22 -23 26 -27 28 -31 32 34 35 -36 38 -40 -43 46 48 -49 -50 51 -53 54 -55 -57 -61 -63 64 -65 66 67 70 74 -75 -76 -79 -80 81 84 -91 96 -97 -98 -99 103 104 -105 107 109 112 113 114 116 -117 119 -120 -121 122 124 125 -127 -129 130 132 134 135 -136 -138 139 142 -146 0
x -2 -3 5 -7 -9 10 12 -15 -16 18 -19 20 21 22 26 -30 -31 32 33 -34 -35 -37 -39 41 -42 45 46 -47 48 -49 -57 58 59 -65 -67 -68 -69 -70 -71 72 73 75 -76 77 -78 80 -81 -83 -84 86 -87 88 89 91 -92 94 96 -101 103 -104 107 109 110 -111 -113 115 118 120 122 -124 -126 127 -128 -129 130 131 133 -134 137 138 140 -141 -143 145 146 -147 -148 -149 -150 0
x -1 3 -8 9 -12 13 -16 17 -18 -22 25 -26 -28 -29 -31 32 -34 38 41 -42 43 -45 -47 -48 49 51 52 58 -62 -65 -66 -68 -70 72 -73 -75 77 -78 -79 80 81 -84 -87 88 -94 -96 99 100 105 106 107 -109 -111 -115 -116 -117 -118 -119 123 -127 -129 -130 -132 137 138 139 140 -141 143 -144 146 148 150 0
x -2 3 5 8 -10 -12 13 14 -15 -19 -25 29 30 31 -32 35 -36 -38 39 40 42 -43 -44 -45 47 -48 50 53 55 -57 58 -62 67 72 -73 75 -79 80 82 87 -88 94 -95 -97 98 -101 102 103 105 -106 -107 110 -112 114 -115 116 -118 -119 121 -125 -126 -127 -128 -129 -130 -133 -135 136 137 141 -142 -146 -148 -149 0
x 1 6 8 -9 -11 -12 -14 15 -17 -18 -19 -20 21 -23 -26 28 -30 -31 -33 34 -35 -36 39 40 -41 42 -44 46 -49 -50 53 58 59 -64 73 -75 -76 77 80 82 -83 -84 85 -88 -91 92 -94 -95 -98 -99 100 -101 102 103 111 -113 -120 -121 -122 -124 125 -127 -128 -129 130 132 133 -135 138 140 -141 -142 -144 149 0
x 2 3 -7 -9 12 -13 -15 19 20 22 -24 -25 -26 27 -29 -30 32 33 -36 -37 -39 -40 -42 -44 -48 49 51 53 -56 59 -61 64 65 -66 -67 69 78 -80 83 84 88 -94 -97 -98 -99 -103 104 -106 -109 -114 116 120 121 -123 -124 -125 126 129 -131 -138 -139 -140 141 144 146 147 148 0
x 1 2 -10 -19 21 -22 25 26 28 30 31 -32 -33 35 36 -43 44 46 47 50 53 -55 -58 -59 -60 -61 -63 -67 -68 70 71 72 82 -83 84 -85 -87 -89 91 92 94 -96 -98 99 -100 -102 104 105 -108 -113 -114 116 117 -118 120 -122 -125 126 127 128 129 130 131 -132 133 -136 138 -141 -142 -144 -146 -147 -149 150 0
x 1 -4 -5 7 8 9 -10 -12 -13 -14 17 20 23 -24 -28 30 -36 -37 -38 -39 41 -42 43 44 45 -47 48 49 -51 54 -55 56 57 -62 66 -68 70 73 -75 77 82 84 -85 86 87 89 -90 91 -92 95 97 103 -105 108 110 -115 117 -118 119 120 -121 -123 -126 127 -129 -130 131 -132 135 -136 -139 -140 -141 142 -145 -146 -147 148 149 0
x 2 4 6 8 9 10 12 -13 14 -15 -16 -18 19 21 -22 -23 25 29 30 33 38 39 40 -41 44 45 46 49 -51 -52 -53 55 -56 59 61 62 -63 64 66 -69 71 -74 76 78 -80 -81 83 -85 86 87 -90 92 -93 95 -101 -103 105 106 -109 113 -115 116 117 118 -119 120 122 -123 126 127 129 -130 131 -133 134 135 136 -141 145 146 148 149 150 0
x -3 -5 7 12 -13 17 -19 -20 22 25 -28 -29 31 -32 -37 -38 39 -40 -41 -45 -46 -47 48 49 -50 -51 -53 55 63 65 -66 68 -69 -72 -77 -79 80 81 -85 86 87 88 -89 -90 -93 -95 96 97 98 -99 -100 105 -106 107 -109 111 -112 -113 -115 -116 119 -121 -122 -125 -128 -130 -131 132 134 -138 -140 141 -143 147 -150 0
x -1 3 -5 8 -9 -11 14 -16 -17 -21 22 23 -24 26 28 -29 -31 32 33 38 39 40 42 -43 -44 45 46 56 57 58 60 -61 66 69 -70 -72 73 75 76 77 78 81 82 -86 87 89 91 -92 -97 100 -108 -109 110 -112 114 -117 -119 121 -122 -123 124 127 130 131 -132 -133 -134 139 -140 141 -145 -146 147 -149 -150 0
x 3 5 7 -8 -10 11 -14 -17 -19 23 24 29 -31 32 -33 35 36 -37 -38 -42 43 -45 -47 51 52 54 57 -60 61 -62 64 -65 67 -72 75 76 79 -80 84 88 -89 -91 -93 94 -99 100 -101 -102 -103 -107 108 109 -113 114 -115 118 120 -124 -125 -126 -127 131 -133 134 135 -137 -139 147 148 -149 0
x 1 3 -4 -5 -7 11 -16 -17 -20 -21 -22 24 -28 30 31 -32 -33 -36 39 41 -42 -43 44 48 -51 57 -59 -60 61 -64 70 72 -73 75 -77 -78 79 -80 -82 83 84 86 -88 93 95 96 -97 98 -100 -101 -102 -103 -105 -107 108 -109 110 116 117 -118 -120 121 -122 -123 -124 125 127 130 131 132 134 -138 139 -140 -145 -149 0
x 3 10 -12 15 -18 20 21 22 23 24 -25 -26 27 28 29 -35 37 39 -40 -42 43 45 -48 51 -52 -54 55 60 61 64 -68 70 73 -75 76 -78 82 85 88 96 99 -100 101 -102 -103 -108 -109 112 114 -116 117 119 121 122 123 125 126 127 -129 131 -132 133 -135 -137 138 143 144 -146 150 0
x 2 3 -5 7 -12 13 15 16 -17 -18 19 23 27 28 29 -30 34 -35 40 -42 -43 46 -47 48 -49 -54 56 57 58 -59 66 -67 69 -72 -74 78 -82 -84 86 88 -89 -91 -92 95 97 99 101 102 104 -114 116 117 118 -126 127 -128 -129 133 134 136 -137 -139 -140 141 143 145 149 150 0
x 3 -4 -5 -6 -11 13 14 20 21 25 27 -28 29 -30 -31 -38 39 40 -42 -44 45 -48 49 52 -53 54 55 56 58 -59 -60 -66 -67 69 70 72 73 75 -76 -77 85 -87 -88 -89 -90 -91 92 97 -98 99 101 -106 107 108 -109 -110 -112 -113 114 -117 120 121 -123 -124 126 -129 -130 -131 -133 136 -137 -138 -139 -141 143 144 -145 -148 -149 0
x -2 3 5 -8 -9 -10 -13 -14 -17 -18 -19 21 -23 -24 25 27 28 30 -31 32 -33 -35 -36 -37 -38 39 -40 -41 42 44 49 50 51 53 57 58 -59 -62 -63 64 -65 66 74 -78 -80 81 -84 85 -89 -92 -93 95 -97 100 -102 104 -109 110 115 -116 117 -122 -123 125 126 127 128 131 -134 136 138 -139 141 -142 143 -144 -146 -147 0
x 6 8 -10 11 13 15 -18 -19 20 -21 24 25 27 28 -29 -30 -32 33 -36 -39 -44 -45 -48 -50 -51 52 -53 -58 59 60 -61 -63 -64 -65 68 69 73 76 77 -78 79 -85 -86 87 96 99 100 101 102 -104 -105 108 109 111 112 115 117 118 120 121 122 124 -126 131 -134 137 -139 140 -142 -143 -147 148 -149 -150 0
x -6 -17 -18 20 -21 26 28 -30 -31 32 33 -36 -38 39 -41 -42 44 46 -47 49 -50 52 -54 55 -56 -58 59 60 -64 66 -70 -74 77 -78 -79 -80 81 87 -94 95 96 97 99 -100 101 -103 -104 108 -110 114 115 -116 -117 118 -120 125 -127 129 130 131 -132 -133 -135 -137 141 -143 145 -146 147 148 0
x 1 -2 -3 -7 9 -10 -11 14 -16 -17 21 22 -23 24 26 29 30 31 33 -34 -36 37 38 39 40 42 43 45 -46 47 -48 -50 -51 -52 53 55 -57 60 -64 -67 -69 72 73 -75 76 78 -79 -80 82 84 90 -92 -93 -96 99 103 104 -109 -110 -113 115 117 123 124 126 -128 -129 -131 132 134 136 -146 -147 148 150 0
x -8 10 11 13 -14 -18 20 21 -22 25 -27 -28 30 -36 -42 43 44 -48 50 -53 -55 -56 -58 -59 -63 -64 66 -67 -70 -71 72 -74 -75 79 80 -81 82 83 84 -85 -86 -87 -91 -92 93 97 -98 -99 -101 -102 104 105 -106 -108 109 113 120 123 124 -125 -127 -128 130 132 134 136 -138 -140 141 144 -146 -147 -150 0
x -2 3 7 -10 -12 -13 15 17 19 -20 -24 25 -26 -28 -31 32 38 -39 -40 41 42 45 46 -47 -48 49 -50 -51 52 54 60 -61 -63 65 68 -69 -70 72 74 75 77 79 80 82 -84 -86 -87 -88 -91 -93 -95 -96 99 100 -102 -105 -106 -108 -109 -111 113 -114 115 -117 118 -119 -122 -129 -130 134 -136 142 -145 -147 0
x 4 6 9 -11 12 -14 15 17 19 -23 -24 -26 -31 -32 35 44 -51 -53 -59 63 -64 65 70 -72 -73 -76 77 -82 84 88 -92 -93 94 95 -98 100 101 102 -103 -107 -109 -110 112 -114 -115 -117 118 120 -121 125 126 -127 128 129 130 131 -132 133 -134 -136 137 -138 -140 144 -145 0
x -1 4 -5 -7 10 -16 -18 21 -25 -26 27 30 -31 32 35 -39 40 -41 -42 46 47 50 53 55 57 -64 -65 -67 -73 -74 75 76 -77 79 81 -82 84 85 86 -88 -91 -92 93 95 96 -98 101 -106 107 108 109 -110 -114 115 116 -117 118 -119 -121 -122 124 127 -128 129 -130 -131 -135 137 139 -140 -141 -142 143 147 -149 -150 0
x -3 11 12 -13 -17 18 -20 23 -24 25 27 -28 -30 31 -33 -40 -41 45 47 -49 -51 -54 59 -61 64 65 -68 70 71 -72 -73 74 -75 -76 -77 79 80 -85 -87 88 91 -95 -96 -97 103 -104 106 -107 108 109 111 115 -116 117 118 -119 -120 121 -122 -123 -128 -133 134 136 137 -139 -141 145 147 -149 -150 0
x 1 7 10 12 -14 -15 -17 -18 23 -25 26 27 28 30 -31 -32 -33 -34 36 -38 -39 -40 41 -42 44 -48 49 51 52 55 57 -59 -61 62 -67 -69 70 -71 -72 76 -82 -83 86 89 91 94 -96 -100 102 -104 -105 106 107 -111 -112 115 -116 117 -119 -120 -122 -123 -126 127 -131 -132 -133 135 139 140 142 143 -145 146 148 -149 150 0
x 4 -7 -10 12 14 -15 16 18 -21 -24 -28 -29 -30 -31 34 -39 40 -42 43 44 45 -48 51 52 -53 -54 55 -56 57 -58 59 -61 62 63 -65 66 -68 72 73 75 77 78 79 -80 83 -84 86 -90 92 -93 -94 95 -96 -100 -101 102 -104 105 -108 109 -112 -113 114 115 117 -118 -119 120 -125 126 127 -129 -132 -135 139 -140 141 -143 -146 -148 149 0
x 1 -2 -3 -9 -13 14 -19 -21 23 24 25 29 30 31 -34 37 43 -45 48 49 51 53 -56 58 -62 63 64 68 71 73 76 79 -81 -82 84 -85 -86 92 93 94 -97 -99 100 -104 -113 -114 -118 -119 -122 -123 -124 -125 -128 129 -130 -136 -137 138 139 140 -144 -145 -147 -149 0
x -2 3 4 -5 7 -10 -11 13 16 -17 -20 -21 -23 24 25 -26 -28 29 -31 32 -34 36 38 40 41 -43 51 -53 54 56 -57 59 60 62 63 64 65 66 67 70 -71 72 77 -80 81 82 -83 -86 87 88 90 -95 100 -101 103 -106 -109 -111 -115 -116 117 119 -122 124 -126 127 128 -129 -134 135 137 139 -140 -143 -144 145 -147 148 -149 0
x 2 -5 -7 -9 11 14 -16 -19 -24 -26 27 -29 -34 -37 39 -40 41 45 -48 -50 -55 -56 60 -62 63 -65 69 -70 72 -73 -74 -75 76 -77 83 -84 -86 -87 88 89 91 -92 -96 -97 100 101 102 -108 -109 111 112 115 116 119 120 -121 125 -126 127 128 130 -131 -133 -134 136 137 -138 139 -141 143 144 146 147 148 0
x 1 2 -4 5 7 8 -10 -11 12 -14 -16 -17 23 24 -27 -29 -31 34 35 38 -40 -41 43 44 -49 -51 52 -55 -56 59 -62 -63 -65 -67 -68 70 71 -72 -73 74 75 76 77 78 79 -80 85 88 92 93 -94 95 98 100 -101 103 104 105 -108 110 -111 -112 -113 -115 -116 -117 119 -122 128 -129 -130 131 133 -144 146 147 148 149 -150 0
x 2 5 -11 13 -15 -16 -20 22 28 -30 32 -33 -36 -37 -38 -40 41 44 45 46 -47 -49 51 53 -54 -55 -57 -58 61 -67 -68 -69 -70 71 74 75 -78 79 80 82 -86 87 89 91 92 93 -94 -95 100 -102 103 -104 106 107 109 -110 113 -114 117 120 -121 123 -126 129 131 -137 139 -140 -141 142 143 -146 147 -148 -149 150 0
x -3 4 6 12 13 -14 15 -17 -19 -21 -25 26 -30 31 -34 -35 -37 -39 -40 43 45 46 -47 48 50 53 -57 -58 62 -64 65 66 -69 70 -71 73 -74 -77 79 -85 -88 89 90 92 -93 -94 -95 97 100 -101 -106 -110 -111 113 115 116 -117 -124 125 -126 127 128 -129 -130 131 -134 139 -141 -143 145 150 0
x 2 -3 -4 6 7 -8 -17 20 22 26 27 29 33 -35 37 -38 40 -41 42 -48 49 -50 -51 -53 55 -58 -60 64 -66 67 68 -69 -70 -71 75 76 80 -81 -83 -86 87 -88 -90 -91 -92 -96 98 99 -101 -102 -103 -104 -105 108 109 110 114 -116 117 118 119 120 122 -123 125 -128 -130 -131 134 135 136 139 143 144 147 149 150 0
x 1 2 -6 -9 -11 12 13 14 -20 -22 -25 26 -30 -34 36 42 43 -44 45 -48 50 -51 52 -54 -56 -57 58 60 -63 64 67 69 71 72 -74 77 -79 82 -84 -85 -86 87 96 99 -100 -101 104 -107 110 -113 -116 117 -120 124 125 126 128 -133 134 135 136 142 143 -147 149 150 0
x -1 -2 3 4 6 -9 -10 13 14 -15 16 -17 18 -19 -20 21 -24 25 -27 -29 -30 -32 33 34 38 39 -41 42 43 -44 45 46 -47 49 -50 54 55 56 61 62 65 -68 70 73 -77 -79 -80 81 -82 83 -84 85 -88 -91 95 97 -98 -99 100 102 -105 108 109 110 112 113 114 -115 116 -118 -119 124 -128 -130 -132 134 139 140 142 -143 144 -145 146 147 0
x 3 4 6 8 11 13 -14 17 19 21 22 26 28 -31 -33 -37 38 -39 -40 -41 42 45 46 48 -49 -50 -52 -54 55 59 -61 -62 65 -66 67 68 69 -70 74 75 -76 78 -79 80 -84 -86 -87 92 -93 94 95 97 102 107 108 110 112 -113 114 121 -122 -127 128 130 -132 -133 136 137 138 140 141 -143 144 146 -148 -150 0
x -1 2 -5 -6 9 -10 11 12 -14 15 -16 -18 21 -22 25 30 -31 32 -38 -39 -43 -45 -47 -50 -52 -53 -54 -55 56 58 62 63 -64 -65 67 70 71 75 -76 78 -81 -83 85 -86 -87 -90 94 -96 98 -99 102 104 -106 -107 111 -113 116 119 -120 121 -124 125 126 -129 -134 137 138 -140 147 -149 150 0
x -4 -5 7 -8 -9 11 13 15 16 20 21 23 26 -28 -36 37 38 -43 44 -46 48 49 53 -54 55 -57 -63 -65 -66 -67 -68 -69 71 73 -75 -76 -79 80 81 84 85 86 -87 89 90 -92 -93 94 95 96 -99 -100 101 -102 104 107 109 -110 -124 125 -129 -130 -132 140 145 149 150 0
x 1 -3 4 -6 9 -11 -13 -16 18 20 -24 25 28 29 -30 32 35 36 -37 38 40 43 45 46 -47 -52 -55 -57 60 68 70 71 -74 -75 76 -77 -79 -80 -82 -83 84 89 -96 -98 99 100 101 107 -108 -109 -111 -115 -117 118 -119 -121 124 126 130 131 -133 -134 -136 138 139 -144 146 147 150 0
x 2 -3 4 6 7 -9 10 12 13 -17 21 23 -25 -27 -29 -34 41 46 51 -54 -56 -57 -59 60 64 66 -67 -71 -74 80 82 86 91 -94 97 98 100 101 102 104 107 -108 -110 -111 -115 117 120 -121 -122 123 -124 127 -130 -132 134 135 -136 -140 141 142 143 -145 -146 -148 149 150 0
x -1 2 4 5 -8 -9 13 15 -24 -27 -28 29 30 31 -32 33 34 39 -40 42 -44 47 48 50 -52 54 -55 56 -57 62 -63 64 68 71 73 -76 77 79 -80 -84 85 -86 -87 -88 -90 91 -94 -95 -96 -97 -98 99 -101 -102 -103 105 -107 109 -110 113 -115 -117 119 124 126 -128 -129 130 -133 134 135 137 138 -139 140 143 144 -145 -146 147 0
x 1 2 3 -4 -5 6 -7 -8 -11 -13 14 16 17 19 -20 22 23 24 -25 -26 -27 -30 -32 -34 -36 37 -40 -42 43 -45 -48 53 -55 57 62 65 67 -69 71 -74 75 -76 79 81 82 84 -87 -90 -91 -98 100 101 -103 105 -107 109 -111 112 114 -115 117 120 122 -123 125 127 -129 -130 -131 -132 134 135 -136 138 140 -141 -142 143 -147 148 150 0
